n_res = 4;
rcap = [21, 27, 156, 160];
rtype = [1, 1, 2, 2];
n_tasks = 30;
modes = [ {1, 2, 3}, {4, 5, 6}, {7, 8, 9}, {10, 11, 12}, {13, 14, 15}, {16, 17, 18}, {19, 20, 21}, {22, 23, 24}, {25, 26, 27}, {28, 29, 30}, {31, 32, 33}, {34, 35, 36}, {37, 38, 39}, {40, 41, 42}, {43, 44, 45}, {46, 47, 48}, {49, 50, 51}, {52, 53, 54}, {55, 56, 57}, {58, 59, 60}, {61, 62, 63}, {64, 65, 66}, {67, 68, 69}, {70, 71, 72}, {73, 74, 75}, {76, 77, 78}, {79, 80, 81}, {82, 83, 84}, {85, 86, 87}, {88, 89, 90} ];
succ = [ {5, 12, 16}, {4, 13, 15}, {6, 27, 30}, {8, 22, 25}, {9, 10, 17}, {7, 17}, {9, 13, 26}, {11, 18, 28}, {18}, {13, 14}, {14, 16}, {14, 22}, {24, 28}, {19, 24}, {16}, {17, 19, 21}, {29}, {21}, {20}, {23}, {24}, {26, 30}, {27}, {29}, {26, 27, 30}, {28}, {29}, {}, {}, {} ];
n_opt = 90;
dur = [1, 4, 9, 3, 4, 9, 1, 4, 4, 3, 5, 9, 2, 3, 4, 1, 1, 3, 5, 6, 8, 3, 3, 9, 2, 7, 8, 5, 6, 9, 9, 9, 10, 1, 3, 10, 3, 4, 8, 1, 3, 8, 2, 2, 3, 5, 6, 8, 2, 2, 8, 3, 3, 4, 5, 8, 8, 1, 7, 9, 1, 10, 10, 2, 3, 9, 3, 6, 7, 3, 6, 8, 2, 6, 10, 6, 8, 10, 2, 7, 9, 4, 4, 8, 3, 6, 8, 2, 3, 7];
rreq = [|  2,  0,  0,  0,  7,  5,  0,  3,  0,  0,  0,  0,  0,  0,  0,  0,  6,  0,  7,  0,  4,  0,  0,  3,  8,  0,  8,  3,  0,  0,  0, 10,  6,  0,  7,  0,  0,  0,  0,  0,  9,  6,  0,  7,  7,  1,  0,  0,  9,  0,  8,  3,  0,  3,  0,  0,  7,  0, 10,  0,  0,  5,  0,  5,  0,  0,  0,  1,  0,  0,  8,  7,  9,  0,  0,  4,  0,  0,  0,  0,  2,  0,  6,  0,  2,  2,  1,  5,  0,  4
        |  0,  4,  3,  2,  0,  0,  6,  0,  5,  6,  4,  3,  8,  7,  7,  9,  0,  8,  0,  7,  0,  7,  8,  0,  0,  6,  0,  0,  9,  4,  2,  0,  0,  5,  0,  5,  5,  4,  4, 10,  0,  0,  7,  0,  0,  0,  9,  8,  0,  5,  0,  0,  8,  0,  5,  5,  0,  8,  0,  6, 10,  0,  1,  0,  8,  5,  8,  0,  6, 10,  0,  0,  0,  2,  1,  0,  6,  3,  8,  6,  0,  6,  0,  7,  0,  0,  0,  0,  1,  0
        |  1,  0,  0,  0,  0,  7,  0,  2,  2, 10,  0, 10,  0,  0,  0,  9,  6,  2,  7,  0,  0,  0,  4,  0,  0,  0,  3,  6,  0,  0,  0,  0,  0,  0,  0,  6,  4,  4,  3,  0,  0,  7,  0,  0,  6,  0,  0,  6,  0,  0,  6,  0,  0,  3,  5,  0,  0,  0,  4,  0,  5,  3,  0,  0,  8,  5,  4,  0,  0,  0,  8,  0,  6,  5,  0,  6,  0,  0,  3,  2,  0,  6,  6,  0,  7,  0,  5,  7,  0,  6
        |  0,  7,  1,  4,  2,  0,  4,  0,  0,  0,  5,  0,  8,  7,  4,  0,  0,  0,  0,  9,  9,  7,  0,  7,  7,  5,  0,  0, 10,  8,  8,  9,  6,  2,  2,  0,  0,  0,  0,  2,  2,  0,  5,  5,  0,  2,  1,  0,  6,  3,  0,  1,  4,  0,  0,  1,  4,  7,  0,  3,  0,  0,  7,  1,  0,  0,  0,  5,  5,  8,  0,  7,  0,  0,  8,  0,  7,  4,  0,  0, 10,  0,  0,  2,  0,  7,  0,  0,  3,  0 |];
